[TITLE]


[JUNCTIONS]
;ID              	Elev        	Demand      	Pattern         
 1               	62.48       	0           	                	;
 2               	68.48       	1.08        	                	;
 3               	65.77       	0.89        	                	;
 4               	48.81       	0.76        	                	;
 5               	42.95       	0.37        	                	;
 6               	48.9        	1.11        	                	;
 7               	42.07       	0.82        	                	;
 8               	41.51       	0.42        	                	;
 9               	43.83       	0.24        	                	;
 10              	56.74       	0.48        	                	;
 11              	57.12       	0.33        	                	;
 12              	59.47       	0.35        	                	;
 13              	41.21       	0.63        	                	;
 14              	40.85       	1.41        	                	;
 15              	38.33       	1.13        	                	;
 16              	35.17       	0.82        	                	;
 17              	30.42       	0.58        	                	;
 18              	40.4        	0.68        	                	;
 19              	45.6        	0.61        	                	;
 20              	29.91       	0.35        	                	;
 21              	28.34       	1.18        	                	;
 22              	24.82       	1.11        	                	;
 23              	27.1        	0.63        	                	;
 24              	28.16       	1.39        	                	;
 25              	24.71       	0.11        	                	;
 26              	23.74       	0.11        	                	;
 27              	33.35       	0.96        	                	;
 28              	42.72       	1.65        	                	;
 29              	37.71       	0.56        	                	;
 30              	32.41       	0.87        	                	;
 31              	46.8        	0.68        	                	;
 32              	41.78       	0.78        	                	;
 33              	41.81       	1.06        	                	;
 34              	19.06       	0.52        	                	;
 35              	21.47       	0.13        	                	;
 36              	36.06       	0.2         	                	;
 37              	26.27       	0.18        	                	;
 38              	28.55       	0.33        	                	;
 39              	54.35       	0.65        	                	;
 40              	64.33       	0.28        	                	;
 41              	30.01       	0.39        	                	;
 42              	35.63       	0.39        	                	;
 43              	40.20       	0.89        	                	;
 44              	20.35       	0.13        	                	;
 45              	24.38       	0.2         	                	;
 46              	17.91       	0.3         	                	;
 47              	17.77       	0.18        	                	;
 48              	16.13       	0.26        	                	;
 49              	22.96       	0.3         	                	;
 50              	35.39       	0.17        	                	;
 51              	38.88       	0.61        	                	;
 52              	30.1        	0.39        	                	;
 53              	22.99       	0.22        	                	;
 54              	12.5        	0.32        	                	;
 55              	13.04       	0.74        	                	;
 56              	21.88       	0.39        	                	;
 57              	9.66        	9.26        	                	;

[RESERVOIRS]
;ID              	Head        	Pattern         
 58              	115         	                	;R1

[TANKS]
;ID              	Elevation   	InitLevel   	MinLevel    	MaxLevel    	Diameter    	MinVol      	VolCurve        	Overflow

[PIPES]
;ID              	Node1           	Node2           	Length      	Diameter    	Roughness   	MinorLoss   	Status
 1               	58              	1               	110.05      	200         	100         	0           	Open  	;
 2               	1               	2               	328.45      	200         	100         	0           	Open  	;
 3               	2               	3               	189.89      	50          	100         	0           	Open  	;
 4               	3               	4               	162.62      	25          	100         	0           	Open  	;
 5               	4               	5               	124.41      	25          	100         	0           	Open  	;
 6               	5               	6               	90.2        	200         	100         	0           	Open  	;
 7               	2               	6               	185.66      	200         	100         	0           	Open  	;
 8               	5               	7               	62.38       	200         	100         	0           	Open  	;
 9               	7               	8               	128.02      	50          	100         	0           	Open  	;
 10              	8               	9               	55.75       	25          	100         	0           	Open  	;
 11              	9               	10              	184.53      	25          	100         	0           	Open  	;
 12              	10              	11              	83.92       	25          	100         	0           	Open  	;
 13              	11              	12              	192.75      	25          	100         	0           	Open  	;
 14              	12              	9               	107.31      	25          	100         	0           	Open  	;
 15              	12              	13              	53.15       	50          	100         	0           	Open  	;
 16              	13              	8               	55.39       	50          	100         	0           	Open  	;
 17              	7               	15              	194.97      	200         	100         	0           	Open  	;
 18              	13              	14              	209.84      	25          	100         	0           	Open  	;
 19              	15              	14              	229.49      	50          	100         	0           	Open  	;
 20              	15              	16              	70.45       	200         	100         	0           	Open  	;
 21              	16              	17              	83.92       	25          	100         	0           	Open  	;
 22              	17              	18              	145.64      	25          	100         	0           	Open  	;
 23              	14              	18              	71.05       	25          	100         	0           	Open  	;
 24              	18              	19              	102.99      	25          	100         	0           	Open  	;
 25              	16              	21              	147.35      	200         	100         	0           	Open  	;
 26              	21              	20              	100.94      	25          	100         	0           	Open  	;
 27              	20              	19              	144.56      	25          	100         	0           	Open  	;
 28              	17              	20              	127.29      	25          	100         	0           	Open  	;
 29              	21              	22              	186.12      	200         	100         	0           	Open  	;
 30              	22              	23              	187.81      	80          	100         	0           	Open  	;
 31              	23              	24              	124.19      	100         	100         	0           	Open  	;
 32              	24              	30              	139.08      	80          	100         	0           	Open  	;
 33              	30              	29              	135.02      	80          	100         	0           	Open  	;
 34              	24              	25              	144.5       	25          	100         	0           	Open  	;
 35              	25              	26              	55.94       	25          	100         	0           	Open  	;
 36              	26              	27              	219.46      	25          	100         	0           	Open  	;
 37              	27              	28              	134.6       	50          	100         	0           	Open  	;
 38              	28              	29              	190.18      	50          	100         	0           	Open  	;
 39              	29              	31              	166.4       	25          	100         	0           	Open  	;
 40              	31              	32              	145.19      	25          	100         	0           	Open  	;
 41              	32              	33              	53.16       	50          	100         	0           	Open  	;
 42              	33              	24              	189.83      	50          	100         	0           	Open  	;
 43              	22              	34              	363.63      	125         	100         	0           	Open  	;
 44              	34              	35              	92.25       	125         	100         	0           	Open  	;
 45              	35              	36              	100.29      	80          	100         	0           	Open  	;
 46              	36              	37              	107.16      	25          	100         	0           	Open  	;
 47              	36              	38              	97.48       	80          	100         	0           	Open  	;
 48              	38              	41              	68.08       	80          	100         	0           	Open  	;
 49              	41              	42              	42.52       	80          	100         	0           	Open  	;
 50              	42              	43              	128.01      	50          	100         	0           	Open  	;
 51              	42              	40              	183.96      	50          	100         	0           	Open  	;
 52              	40              	39              	73.94       	25          	100         	0           	Open  	;
 53              	39              	38              	230.45      	25          	100         	0           	Open  	;
 54              	34              	46              	83.85       	80          	100         	0           	Open  	;
 55              	35              	44              	88.5        	25          	100         	0           	Open  	;
 56              	44              	45              	88.66       	25          	100         	0           	Open  	;
 57              	45              	56              	79.61       	25          	100         	0           	Open  	;
 58              	56              	55              	174.45      	25          	100         	0           	Open  	;
 59              	46              	54              	182.84      	80          	100         	0           	Open  	;
 60              	54              	55              	53.81       	25          	100         	0           	Open  	;
 61              	54              	57              	226.02      	80          	100         	0           	Open  	;
 62              	46              	47              	180.29      	50          	100         	0           	Open  	;
 63              	47              	53              	144.6       	50          	100         	0           	Open  	;
 64              	53              	52              	138.57      	50          	100         	0           	Open  	;
 65              	52              	51              	133.2       	50          	100         	0           	Open  	;
 66              	52              	50              	135.76      	25          	100         	0           	Open  	;
 67              	50              	49              	141.1       	25          	100         	0           	Open  	;
 68              	49              	53              	162.27      	25          	100         	0           	Open  	;
 69              	49              	48              	140.17      	25          	100         	0           	Open  	;
 70              	48              	47              	176.91      	25          	100         	0           	Open  	;

[PUMPS]
;ID              	Node1           	Node2           	Parameters

[VALVES]
;ID              	Node1           	Node2           	Diameter    	Type	Setting     	MinorLoss   

[TAGS]

[DEMANDS]
;Junction        	Demand      	Pattern         	Category

[STATUS]
;ID              	Status/Setting

[PATTERNS]
;ID              	Multipliers

[CURVES]
;ID              	X-Value     	Y-Value

[CONTROLS]

[RULES]

[ENERGY]
 Global Efficiency  	75
 Global Price       	0
 Demand Charge      	0

[EMITTERS]
;Junction        	Coefficient

[QUALITY]
;Node            	InitQual

[SOURCES]
;Node            	Type        	Quality     	Pattern

[REACTIONS]
;Type     	Pipe/Tank       	Coefficient


[REACTIONS]
 Order Bulk            	1
 Order Tank            	1
 Order Wall            	1
 Global Bulk           	0
 Global Wall           	0
 Limiting Potential    	0
 Roughness Correlation 	0

[MIXING]
;Tank            	Model

[TIMES]
 Duration           	0
 Hydraulic Timestep 	1:00
 Quality Timestep   	0:05
 Pattern Timestep   	1:00
 Pattern Start      	0:00
 Report Timestep    	1:00
 Report Start       	0:00
 Start ClockTime    	12 am
 Statistic          	None

[REPORT]
 Status             	No
 Summary            	No
 Page               	0

[OPTIONS]
 Units              	LPS
 Headloss           	H-W
 Specific Gravity   	1
 Viscosity          	1
 Trials             	40
 Accuracy           	0.001
 CHECKFREQ          	2
 MAXCHECK           	10
 DAMPLIMIT          	0
 Unbalanced         	Continue 10
 Pattern            	1
 Demand Multiplier  	1.0
 Emitter Exponent   	0.5
 Quality            	None mg/L
 Diffusivity        	1
 Tolerance          	0.01

[COORDINATES]
;Node            	X-Coord           	Y-Coord
1               	-1989.597         	8725.618          
2               	-611.183          	7958.388          
3               	741.222           	8933.680          
4               	2002.601          	8231.469          
5               	1833.550          	7360.208          
6               	780.234           	7711.313          
7               	1729.519          	6410.923          
8               	3055.917          	6397.919          
9               	3263.979          	7490.247          
10              	3628.088          	8712.614          
11              	5058.518          	8621.586          
12              	4551.365          	7321.196          
13              	4187.256          	6059.818          
14              	3953.186          	4902.471          
15              	1417.425          	5110.533          
16              	1235.371          	4525.358          
17              	2340.702          	4213.264          
18              	3719.116          	4096.229          
19              	3381.014          	3055.917          
20              	2067.620          	3433.030          
21              	988.296           	3771.131          
22              	780.234           	3016.905          
23              	-208.062          	3706.112          
24              	-1014.304         	4447.334          
25              	-1144.343         	3810.143          
26              	-1391.417         	3172.952          
27              	-2314.694         	3381.014          
28              	-3276.983         	3745.124          
29              	-2951.886         	4733.420          
30              	-1924.577         	4577.373          
31              	-2704.811         	5864.759          
32              	-1599.480         	5604.681          
33              	-481.144          	5318.596          
34              	663.199           	1963.589          
35              	1742.523          	1807.542          
36              	4135.241          	1482.445          
37              	5721.717          	1105.332          
38              	4538.362          	2470.741          
39              	6228.869          	2457.737          
40              	6163.849          	3602.081          
41              	4629.389          	3185.956          
42              	4980.494          	4005.202          
43              	5448.635          	5084.525          
44              	1755.527          	1248.375          
45              	2873.862          	1014.304          
46              	520.156           	1391.417          
47              	-598.179          	1443.433          
48              	-715.215          	728.218           
49              	-2067.620         	754.226           
50              	-3211.964         	962.289           
51              	-3953.186         	2158.648          
52              	-2964.889         	1898.570          
53              	-1794.538         	1612.484          
54              	442.133           	793.238           
55              	1456.437          	559.168           
56              	2678.804          	533.160           
57              	247.074           	78.023            
58              	-3602.081         	8920.676          

[VERTICES]
;Link            	X-Coord           	Y-Coord

[LABELS]
;X-Coord             Y-Coord             Label & Anchor Node

[BACKDROP]
  DIMENSIONS  	0.000             	0.000             	10000.000         	10000.000         
 UNITS          	None
 FILE           	
 OFFSET         	0.00            	0.00            

[END]
